c description: Tseitin formula on , with even charge
c generator: CNFgen (0.9.0)
c copyright: (C) 2012-2020 Massimo Lauria <massimo.lauria@uniroma1.it>
c url: https://massimolauria.net/cnfgen
c
p cnf 30 484
1 2 3 4 -5 0
1 2 3 -4 5 0
1 2 -3 4 5 0
1 2 -3 -4 -5 0
1 -2 3 4 5 0
1 -2 3 -4 -5 0
1 -2 -3 4 -5 0
1 -2 -3 -4 5 0
-1 2 3 4 5 0
-1 2 3 -4 -5 0
-1 2 -3 4 -5 0
-1 2 -3 -4 5 0
-1 -2 3 4 -5 0
-1 -2 3 -4 5 0
-1 -2 -3 4 5 0
-1 -2 -3 -4 -5 0
6 7 8 9 -10 0
6 7 8 -9 10 0
6 7 -8 9 10 0
6 7 -8 -9 -10 0
6 -7 8 9 10 0
6 -7 8 -9 -10 0
6 -7 -8 9 -10 0
6 -7 -8 -9 10 0
-6 7 8 9 10 0
-6 7 8 -9 -10 0
-6 7 -8 9 -10 0
-6 7 -8 -9 10 0
-6 -7 8 9 -10 0
-6 -7 8 -9 10 0
-6 -7 -8 9 10 0
-6 -7 -8 -9 -10 0
6 11 12 13 14 -15 0
6 11 12 13 -14 15 0
6 11 12 -13 14 15 0
6 11 12 -13 -14 -15 0
6 11 -12 13 14 15 0
6 11 -12 13 -14 -15 0
6 11 -12 -13 14 -15 0
6 11 -12 -13 -14 15 0
6 -11 12 13 14 15 0
6 -11 12 13 -14 -15 0
6 -11 12 -13 14 -15 0
6 -11 12 -13 -14 15 0
6 -11 -12 13 14 -15 0
6 -11 -12 13 -14 15 0
6 -11 -12 -13 14 15 0
6 -11 -12 -13 -14 -15 0
-6 11 12 13 14 15 0
-6 11 12 13 -14 -15 0
-6 11 12 -13 14 -15 0
-6 11 12 -13 -14 15 0
-6 11 -12 13 14 -15 0
-6 11 -12 13 -14 15 0
-6 11 -12 -13 14 15 0
-6 11 -12 -13 -14 -15 0
-6 -11 12 13 14 -15 0
-6 -11 12 13 -14 15 0
-6 -11 12 -13 14 15 0
-6 -11 12 -13 -14 -15 0
-6 -11 -12 13 14 15 0
-6 -11 -12 13 -14 -15 0
-6 -11 -12 -13 14 -15 0
-6 -11 -12 -13 -14 15 0
16 17 -18 0
16 -17 18 0
-16 17 18 0
-16 -17 -18 0
1 11 16 19 20 21 22 -23 0
1 11 16 19 20 21 -22 23 0
1 11 16 19 20 -21 22 23 0
1 11 16 19 20 -21 -22 -23 0
1 11 16 19 -20 21 22 23 0
1 11 16 19 -20 21 -22 -23 0
1 11 16 19 -20 -21 22 -23 0
1 11 16 19 -20 -21 -22 23 0
1 11 16 -19 20 21 22 23 0
1 11 16 -19 20 21 -22 -23 0
1 11 16 -19 20 -21 22 -23 0
1 11 16 -19 20 -21 -22 23 0
1 11 16 -19 -20 21 22 -23 0
1 11 16 -19 -20 21 -22 23 0
1 11 16 -19 -20 -21 22 23 0
1 11 16 -19 -20 -21 -22 -23 0
1 11 -16 19 20 21 22 23 0
1 11 -16 19 20 21 -22 -23 0
1 11 -16 19 20 -21 22 -23 0
1 11 -16 19 20 -21 -22 23 0
1 11 -16 19 -20 21 22 -23 0
1 11 -16 19 -20 21 -22 23 0
1 11 -16 19 -20 -21 22 23 0
1 11 -16 19 -20 -21 -22 -23 0
1 11 -16 -19 20 21 22 -23 0
1 11 -16 -19 20 21 -22 23 0
1 11 -16 -19 20 -21 22 23 0
1 11 -16 -19 20 -21 -22 -23 0
1 11 -16 -19 -20 21 22 23 0
1 11 -16 -19 -20 21 -22 -23 0
1 11 -16 -19 -20 -21 22 -23 0
1 11 -16 -19 -20 -21 -22 23 0
1 -11 16 19 20 21 22 23 0
1 -11 16 19 20 21 -22 -23 0
1 -11 16 19 20 -21 22 -23 0
1 -11 16 19 20 -21 -22 23 0
1 -11 16 19 -20 21 22 -23 0
1 -11 16 19 -20 21 -22 23 0
1 -11 16 19 -20 -21 22 23 0
1 -11 16 19 -20 -21 -22 -23 0
1 -11 16 -19 20 21 22 -23 0
1 -11 16 -19 20 21 -22 23 0
1 -11 16 -19 20 -21 22 23 0
1 -11 16 -19 20 -21 -22 -23 0
1 -11 16 -19 -20 21 22 23 0
1 -11 16 -19 -20 21 -22 -23 0
1 -11 16 -19 -20 -21 22 -23 0
1 -11 16 -19 -20 -21 -22 23 0
1 -11 -16 19 20 21 22 -23 0
1 -11 -16 19 20 21 -22 23 0
1 -11 -16 19 20 -21 22 23 0
1 -11 -16 19 20 -21 -22 -23 0
1 -11 -16 19 -20 21 22 23 0
1 -11 -16 19 -20 21 -22 -23 0
1 -11 -16 19 -20 -21 22 -23 0
1 -11 -16 19 -20 -21 -22 23 0
1 -11 -16 -19 20 21 22 23 0
1 -11 -16 -19 20 21 -22 -23 0
1 -11 -16 -19 20 -21 22 -23 0
1 -11 -16 -19 20 -21 -22 23 0
1 -11 -16 -19 -20 21 22 -23 0
1 -11 -16 -19 -20 21 -22 23 0
1 -11 -16 -19 -20 -21 22 23 0
1 -11 -16 -19 -20 -21 -22 -23 0
-1 11 16 19 20 21 22 23 0
-1 11 16 19 20 21 -22 -23 0
-1 11 16 19 20 -21 22 -23 0
-1 11 16 19 20 -21 -22 23 0
-1 11 16 19 -20 21 22 -23 0
-1 11 16 19 -20 21 -22 23 0
-1 11 16 19 -20 -21 22 23 0
-1 11 16 19 -20 -21 -22 -23 0
-1 11 16 -19 20 21 22 -23 0
-1 11 16 -19 20 21 -22 23 0
-1 11 16 -19 20 -21 22 23 0
-1 11 16 -19 20 -21 -22 -23 0
-1 11 16 -19 -20 21 22 23 0
-1 11 16 -19 -20 21 -22 -23 0
-1 11 16 -19 -20 -21 22 -23 0
-1 11 16 -19 -20 -21 -22 23 0
-1 11 -16 19 20 21 22 -23 0
-1 11 -16 19 20 21 -22 23 0
-1 11 -16 19 20 -21 22 23 0
-1 11 -16 19 20 -21 -22 -23 0
-1 11 -16 19 -20 21 22 23 0
-1 11 -16 19 -20 21 -22 -23 0
-1 11 -16 19 -20 -21 22 -23 0
-1 11 -16 19 -20 -21 -22 23 0
-1 11 -16 -19 20 21 22 23 0
-1 11 -16 -19 20 21 -22 -23 0
-1 11 -16 -19 20 -21 22 -23 0
-1 11 -16 -19 20 -21 -22 23 0
-1 11 -16 -19 -20 21 22 -23 0
-1 11 -16 -19 -20 21 -22 23 0
-1 11 -16 -19 -20 -21 22 23 0
-1 11 -16 -19 -20 -21 -22 -23 0
-1 -11 16 19 20 21 22 -23 0
-1 -11 16 19 20 21 -22 23 0
-1 -11 16 19 20 -21 22 23 0
-1 -11 16 19 20 -21 -22 -23 0
-1 -11 16 19 -20 21 22 23 0
-1 -11 16 19 -20 21 -22 -23 0
-1 -11 16 19 -20 -21 22 -23 0
-1 -11 16 19 -20 -21 -22 23 0
-1 -11 16 -19 20 21 22 23 0
-1 -11 16 -19 20 21 -22 -23 0
-1 -11 16 -19 20 -21 22 -23 0
-1 -11 16 -19 20 -21 -22 23 0
-1 -11 16 -19 -20 21 22 -23 0
-1 -11 16 -19 -20 21 -22 23 0
-1 -11 16 -19 -20 -21 22 23 0
-1 -11 16 -19 -20 -21 -22 -23 0
-1 -11 -16 19 20 21 22 23 0
-1 -11 -16 19 20 21 -22 -23 0
-1 -11 -16 19 20 -21 22 -23 0
-1 -11 -16 19 20 -21 -22 23 0
-1 -11 -16 19 -20 21 22 -23 0
-1 -11 -16 19 -20 21 -22 23 0
-1 -11 -16 19 -20 -21 22 23 0
-1 -11 -16 19 -20 -21 -22 -23 0
-1 -11 -16 -19 20 21 22 -23 0
-1 -11 -16 -19 20 21 -22 23 0
-1 -11 -16 -19 20 -21 22 23 0
-1 -11 -16 -19 20 -21 -22 -23 0
-1 -11 -16 -19 -20 21 22 23 0
-1 -11 -16 -19 -20 21 -22 -23 0
-1 -11 -16 -19 -20 -21 22 -23 0
-1 -11 -16 -19 -20 -21 -22 23 0
7 12 17 19 24 -25 0
7 12 17 19 -24 25 0
7 12 17 -19 24 25 0
7 12 17 -19 -24 -25 0
7 12 -17 19 24 25 0
7 12 -17 19 -24 -25 0
7 12 -17 -19 24 -25 0
7 12 -17 -19 -24 25 0
7 -12 17 19 24 25 0
7 -12 17 19 -24 -25 0
7 -12 17 -19 24 -25 0
7 -12 17 -19 -24 25 0
7 -12 -17 19 24 -25 0
7 -12 -17 19 -24 25 0
7 -12 -17 -19 24 25 0
7 -12 -17 -19 -24 -25 0
-7 12 17 19 24 25 0
-7 12 17 19 -24 -25 0
-7 12 17 -19 24 -25 0
-7 12 17 -19 -24 25 0
-7 12 -17 19 24 -25 0
-7 12 -17 19 -24 25 0
-7 12 -17 -19 24 25 0
-7 12 -17 -19 -24 -25 0
-7 -12 17 19 24 -25 0
-7 -12 17 19 -24 25 0
-7 -12 17 -19 24 25 0
-7 -12 17 -19 -24 -25 0
-7 -12 -17 19 24 25 0
-7 -12 -17 19 -24 -25 0
-7 -12 -17 -19 24 -25 0
-7 -12 -17 -19 -24 25 0
2 8 20 24 26 -27 0
2 8 20 24 -26 27 0
2 8 20 -24 26 27 0
2 8 20 -24 -26 -27 0
2 8 -20 24 26 27 0
2 8 -20 24 -26 -27 0
2 8 -20 -24 26 -27 0
2 8 -20 -24 -26 27 0
2 -8 20 24 26 27 0
2 -8 20 24 -26 -27 0
2 -8 20 -24 26 -27 0
2 -8 20 -24 -26 27 0
2 -8 -20 24 26 -27 0
2 -8 -20 24 -26 27 0
2 -8 -20 -24 26 27 0
2 -8 -20 -24 -26 -27 0
-2 8 20 24 26 27 0
-2 8 20 24 -26 -27 0
-2 8 20 -24 26 -27 0
-2 8 20 -24 -26 27 0
-2 8 -20 24 26 -27 0
-2 8 -20 24 -26 27 0
-2 8 -20 -24 26 27 0
-2 8 -20 -24 -26 -27 0
-2 -8 20 24 26 -27 0
-2 -8 20 24 -26 27 0
-2 -8 20 -24 26 27 0
-2 -8 20 -24 -26 -27 0
-2 -8 -20 24 26 27 0
-2 -8 -20 24 -26 -27 0
-2 -8 -20 -24 26 -27 0
-2 -8 -20 -24 -26 27 0
3 9 13 21 26 28 -29 0
3 9 13 21 26 -28 29 0
3 9 13 21 -26 28 29 0
3 9 13 21 -26 -28 -29 0
3 9 13 -21 26 28 29 0
3 9 13 -21 26 -28 -29 0
3 9 13 -21 -26 28 -29 0
3 9 13 -21 -26 -28 29 0
3 9 -13 21 26 28 29 0
3 9 -13 21 26 -28 -29 0
3 9 -13 21 -26 28 -29 0
3 9 -13 21 -26 -28 29 0
3 9 -13 -21 26 28 -29 0
3 9 -13 -21 26 -28 29 0
3 9 -13 -21 -26 28 29 0
3 9 -13 -21 -26 -28 -29 0
3 -9 13 21 26 28 29 0
3 -9 13 21 26 -28 -29 0
3 -9 13 21 -26 28 -29 0
3 -9 13 21 -26 -28 29 0
3 -9 13 -21 26 28 -29 0
3 -9 13 -21 26 -28 29 0
3 -9 13 -21 -26 28 29 0
3 -9 13 -21 -26 -28 -29 0
3 -9 -13 21 26 28 -29 0
3 -9 -13 21 26 -28 29 0
3 -9 -13 21 -26 28 29 0
3 -9 -13 21 -26 -28 -29 0
3 -9 -13 -21 26 28 29 0
3 -9 -13 -21 26 -28 -29 0
3 -9 -13 -21 -26 28 -29 0
3 -9 -13 -21 -26 -28 29 0
-3 9 13 21 26 28 29 0
-3 9 13 21 26 -28 -29 0
-3 9 13 21 -26 28 -29 0
-3 9 13 21 -26 -28 29 0
-3 9 13 -21 26 28 -29 0
-3 9 13 -21 26 -28 29 0
-3 9 13 -21 -26 28 29 0
-3 9 13 -21 -26 -28 -29 0
-3 9 -13 21 26 28 -29 0
-3 9 -13 21 26 -28 29 0
-3 9 -13 21 -26 28 29 0
-3 9 -13 21 -26 -28 -29 0
-3 9 -13 -21 26 28 29 0
-3 9 -13 -21 26 -28 -29 0
-3 9 -13 -21 -26 28 -29 0
-3 9 -13 -21 -26 -28 29 0
-3 -9 13 21 26 28 -29 0
-3 -9 13 21 26 -28 29 0
-3 -9 13 21 -26 28 29 0
-3 -9 13 21 -26 -28 -29 0
-3 -9 13 -21 26 28 29 0
-3 -9 13 -21 26 -28 -29 0
-3 -9 13 -21 -26 28 -29 0
-3 -9 13 -21 -26 -28 29 0
-3 -9 -13 21 26 28 29 0
-3 -9 -13 21 26 -28 -29 0
-3 -9 -13 21 -26 28 -29 0
-3 -9 -13 21 -26 -28 29 0
-3 -9 -13 -21 26 28 -29 0
-3 -9 -13 -21 26 -28 29 0
-3 -9 -13 -21 -26 28 29 0
-3 -9 -13 -21 -26 -28 -29 0
4 14 22 27 28 -30 0
4 14 22 27 -28 30 0
4 14 22 -27 28 30 0
4 14 22 -27 -28 -30 0
4 14 -22 27 28 30 0
4 14 -22 27 -28 -30 0
4 14 -22 -27 28 -30 0
4 14 -22 -27 -28 30 0
4 -14 22 27 28 30 0
4 -14 22 27 -28 -30 0
4 -14 22 -27 28 -30 0
4 -14 22 -27 -28 30 0
4 -14 -22 27 28 -30 0
4 -14 -22 27 -28 30 0
4 -14 -22 -27 28 30 0
4 -14 -22 -27 -28 -30 0
-4 14 22 27 28 30 0
-4 14 22 27 -28 -30 0
-4 14 22 -27 28 -30 0
-4 14 22 -27 -28 30 0
-4 14 -22 27 28 -30 0
-4 14 -22 27 -28 30 0
-4 14 -22 -27 28 30 0
-4 14 -22 -27 -28 -30 0
-4 -14 22 27 28 -30 0
-4 -14 22 27 -28 30 0
-4 -14 22 -27 28 30 0
-4 -14 22 -27 -28 -30 0
-4 -14 -22 27 28 30 0
-4 -14 -22 27 -28 -30 0
-4 -14 -22 -27 28 -30 0
-4 -14 -22 -27 -28 30 0
5 10 15 18 23 25 29 -30 0
5 10 15 18 23 25 -29 30 0
5 10 15 18 23 -25 29 30 0
5 10 15 18 23 -25 -29 -30 0
5 10 15 18 -23 25 29 30 0
5 10 15 18 -23 25 -29 -30 0
5 10 15 18 -23 -25 29 -30 0
5 10 15 18 -23 -25 -29 30 0
5 10 15 -18 23 25 29 30 0
5 10 15 -18 23 25 -29 -30 0
5 10 15 -18 23 -25 29 -30 0
5 10 15 -18 23 -25 -29 30 0
5 10 15 -18 -23 25 29 -30 0
5 10 15 -18 -23 25 -29 30 0
5 10 15 -18 -23 -25 29 30 0
5 10 15 -18 -23 -25 -29 -30 0
5 10 -15 18 23 25 29 30 0
5 10 -15 18 23 25 -29 -30 0
5 10 -15 18 23 -25 29 -30 0
5 10 -15 18 23 -25 -29 30 0
5 10 -15 18 -23 25 29 -30 0
5 10 -15 18 -23 25 -29 30 0
5 10 -15 18 -23 -25 29 30 0
5 10 -15 18 -23 -25 -29 -30 0
5 10 -15 -18 23 25 29 -30 0
5 10 -15 -18 23 25 -29 30 0
5 10 -15 -18 23 -25 29 30 0
5 10 -15 -18 23 -25 -29 -30 0
5 10 -15 -18 -23 25 29 30 0
5 10 -15 -18 -23 25 -29 -30 0
5 10 -15 -18 -23 -25 29 -30 0
5 10 -15 -18 -23 -25 -29 30 0
5 -10 15 18 23 25 29 30 0
5 -10 15 18 23 25 -29 -30 0
5 -10 15 18 23 -25 29 -30 0
5 -10 15 18 23 -25 -29 30 0
5 -10 15 18 -23 25 29 -30 0
5 -10 15 18 -23 25 -29 30 0
5 -10 15 18 -23 -25 29 30 0
5 -10 15 18 -23 -25 -29 -30 0
5 -10 15 -18 23 25 29 -30 0
5 -10 15 -18 23 25 -29 30 0
5 -10 15 -18 23 -25 29 30 0
5 -10 15 -18 23 -25 -29 -30 0
5 -10 15 -18 -23 25 29 30 0
5 -10 15 -18 -23 25 -29 -30 0
5 -10 15 -18 -23 -25 29 -30 0
5 -10 15 -18 -23 -25 -29 30 0
5 -10 -15 18 23 25 29 -30 0
5 -10 -15 18 23 25 -29 30 0
5 -10 -15 18 23 -25 29 30 0
5 -10 -15 18 23 -25 -29 -30 0
5 -10 -15 18 -23 25 29 30 0
5 -10 -15 18 -23 25 -29 -30 0
5 -10 -15 18 -23 -25 29 -30 0
5 -10 -15 18 -23 -25 -29 30 0
5 -10 -15 -18 23 25 29 30 0
5 -10 -15 -18 23 25 -29 -30 0
5 -10 -15 -18 23 -25 29 -30 0
5 -10 -15 -18 23 -25 -29 30 0
5 -10 -15 -18 -23 25 29 -30 0
5 -10 -15 -18 -23 25 -29 30 0
5 -10 -15 -18 -23 -25 29 30 0
5 -10 -15 -18 -23 -25 -29 -30 0
-5 10 15 18 23 25 29 30 0
-5 10 15 18 23 25 -29 -30 0
-5 10 15 18 23 -25 29 -30 0
-5 10 15 18 23 -25 -29 30 0
-5 10 15 18 -23 25 29 -30 0
-5 10 15 18 -23 25 -29 30 0
-5 10 15 18 -23 -25 29 30 0
-5 10 15 18 -23 -25 -29 -30 0
-5 10 15 -18 23 25 29 -30 0
-5 10 15 -18 23 25 -29 30 0
-5 10 15 -18 23 -25 29 30 0
-5 10 15 -18 23 -25 -29 -30 0
-5 10 15 -18 -23 25 29 30 0
-5 10 15 -18 -23 25 -29 -30 0
-5 10 15 -18 -23 -25 29 -30 0
-5 10 15 -18 -23 -25 -29 30 0
-5 10 -15 18 23 25 29 -30 0
-5 10 -15 18 23 25 -29 30 0
-5 10 -15 18 23 -25 29 30 0
-5 10 -15 18 23 -25 -29 -30 0
-5 10 -15 18 -23 25 29 30 0
-5 10 -15 18 -23 25 -29 -30 0
-5 10 -15 18 -23 -25 29 -30 0
-5 10 -15 18 -23 -25 -29 30 0
-5 10 -15 -18 23 25 29 30 0
-5 10 -15 -18 23 25 -29 -30 0
-5 10 -15 -18 23 -25 29 -30 0
-5 10 -15 -18 23 -25 -29 30 0
-5 10 -15 -18 -23 25 29 -30 0
-5 10 -15 -18 -23 25 -29 30 0
-5 10 -15 -18 -23 -25 29 30 0
-5 10 -15 -18 -23 -25 -29 -30 0
-5 -10 15 18 23 25 29 -30 0
-5 -10 15 18 23 25 -29 30 0
-5 -10 15 18 23 -25 29 30 0
-5 -10 15 18 23 -25 -29 -30 0
-5 -10 15 18 -23 25 29 30 0
-5 -10 15 18 -23 25 -29 -30 0
-5 -10 15 18 -23 -25 29 -30 0
-5 -10 15 18 -23 -25 -29 30 0
-5 -10 15 -18 23 25 29 30 0
-5 -10 15 -18 23 25 -29 -30 0
-5 -10 15 -18 23 -25 29 -30 0
-5 -10 15 -18 23 -25 -29 30 0
-5 -10 15 -18 -23 25 29 -30 0
-5 -10 15 -18 -23 25 -29 30 0
-5 -10 15 -18 -23 -25 29 30 0
-5 -10 15 -18 -23 -25 -29 -30 0
-5 -10 -15 18 23 25 29 30 0
-5 -10 -15 18 23 25 -29 -30 0
-5 -10 -15 18 23 -25 29 -30 0
-5 -10 -15 18 23 -25 -29 30 0
-5 -10 -15 18 -23 25 29 -30 0
-5 -10 -15 18 -23 25 -29 30 0
-5 -10 -15 18 -23 -25 29 30 0
-5 -10 -15 18 -23 -25 -29 -30 0
-5 -10 -15 -18 23 25 29 -30 0
-5 -10 -15 -18 23 25 -29 30 0
-5 -10 -15 -18 23 -25 29 30 0
-5 -10 -15 -18 23 -25 -29 -30 0
-5 -10 -15 -18 -23 25 29 30 0
-5 -10 -15 -18 -23 25 -29 -30 0
-5 -10 -15 -18 -23 -25 29 -30 0
-5 -10 -15 -18 -23 -25 -29 30 0